QPLIB_3506
QBB
maximize
496 # number of variables
960 # number of quadratic terms in objective
2 1 4.0
66 1 -4.0
222 1 -4.0
223 1 4.0
220 2 -4.0
237 2 -4.0
440 2 4.0
53 3 4.0
241 3 -4.0
344 3 4.0
376 3 -4.0
5 4 -4.0
292 4 4.0
347 4 4.0
413 4 -4.0
17 5 4.0
289 5 -4.0
346 5 4.0
171 6 -4.0
241 6 -4.0
381 6 4.0
489 6 4.0
70 7 -4.0
112 7 4.0
254 7 4.0
274 7 -4.0
9 8 4.0
93 8 4.0
101 8 -4.0
305 8 -4.0
72 9 4.0
174 9 -4.0
175 9 -4.0
42 10 -4.0
176 10 4.0
176 11 4.0
458 11 -4.0
13 12 4.0
111 12 4.0
232 12 -4.0
275 12 -4.0
69 13 -4.0
142 13 4.0
427 13 -4.0
15 14 4.0
88 14 4.0
280 14 -4.0
434 14 -4.0
173 15 -4.0
174 15 -4.0
364 15 4.0
17 16 4.0
171 16 -4.0
294 16 4.0
415 16 -4.0
452 17 -4.0
455 17 -4.0
30 18 -4.0
180 18 4.0
180 19 4.0
419 19 -4.0
250 20 4.0
273 20 4.0
356 20 -4.0
463 20 -4.0
22 21 4.0
106 21 4.0
255 21 -4.0
303 21 -4.0
61 22 -4.0
138 22 4.0
465 22 -4.0
24 23 4.0
25 23 -4.0
80 23 4.0
397 23 -4.0
172 24 -4.0
173 24 -4.0
396 24 4.0
92 25 4.0
181 25 -4.0
363 25 4.0
27 26 4.0
52 26 -4.0
311 26 4.0
399 26 -4.0
57 27 -4.0
80 27 -4.0
81 27 4.0
29 28 -4.0
378 28 4.0
492 28 4.0
493 28 -4.0
318 29 4.0
449 29 -4.0
487 29 4.0
31 30 4.0
190 30 4.0
230 30 -4.0
384 31 -4.0
33 32 -4.0
253 32 4.0
270 32 4.0
301 32 -4.0
123 33 4.0
124 33 4.0
201 33 -4.0
35 34 4.0
99 34 4.0
276 34 -4.0
331 34 -4.0
55 35 -4.0
113 35 -4.0
133 35 4.0
37 36 4.0
48 36 4.0
177 36 -4.0
234 36 -4.0
99 37 -4.0
153 37 4.0
232 37 -4.0
39 38 4.0
59 38 -4.0
337 38 4.0
366 38 -4.0
64 39 -4.0
182 39 -4.0
476 39 4.0
311 40 -4.0
313 40 4.0
337 40 4.0
339 40 -4.0
108 41 4.0
290 41 4.0
379 41 -4.0
488 41 -4.0
43 42 4.0
186 42 4.0
249 42 -4.0
353 43 -4.0
45 44 -4.0
252 44 4.0
298 44 4.0
328 44 -4.0
132 45 4.0
207 45 -4.0
385 45 4.0
125 46 4.0
252 46 4.0
274 46 -4.0
463 46 -4.0
112 47 -4.0
159 47 4.0
172 47 4.0
191 47 -4.0
172 48 -4.0
433 48 4.0
472 48 -4.0
50 49 4.0
236 49 -4.0
335 49 -4.0
369 49 4.0
64 50 4.0
179 50 -4.0
235 50 -4.0
52 51 -4.0
82 51 4.0
369 51 4.0
372 51 -4.0
120 52 4.0
283 52 4.0
116 53 4.0
287 53 -4.0
347 53 -4.0
218 54 -4.0
272 54 4.0
325 54 4.0
359 54 -4.0
253 55 -4.0
272 55 4.0
426 55 4.0
111 56 -4.0
165 56 4.0
173 56 4.0
187 56 -4.0
79 57 4.0
208 57 4.0
396 57 -4.0
59 58 -4.0
75 58 4.0
402 58 4.0
405 58 -4.0
127 59 4.0
260 59 4.0
231 60 -4.0
300 60 4.0
355 60 4.0
390 60 -4.0
273 61 -4.0
300 61 4.0
391 61 4.0
78 62 -4.0
106 62 -4.0
174 62 4.0
430 62 4.0
112 63 -4.0
139 63 4.0
174 63 -4.0
258 63 4.0
72 64 4.0
364 64 -4.0
236 65 -4.0
371 65 4.0
438 65 4.0
441 65 -4.0
90 66 4.0
341 66 -4.0
371 66 4.0
148 67 4.0
263 67 -4.0
408 67 -4.0
489 67 4.0
251 68 -4.0
327 68 4.0
387 68 4.0
424 68 -4.0
301 69 -4.0
327 69 4.0
360 69 4.0
71 70 4.0
177 70 -4.0
429 70 4.0
164 71 4.0
360 71 -4.0
394 71 -4.0
150 72 -4.0
333 72 -4.0
221 73 -4.0
404 73 4.0
477 73 4.0
480 73 -4.0
75 74 -4.0
83 74 4.0
238 74 -4.0
404 74 4.0
260 75 -4.0
442 75 4.0
144 76 4.0
240 76 -4.0
375 76 -4.0
450 76 4.0
254 77 -4.0
328 77 -4.0
330 77 4.0
358 77 4.0
332 78 4.0
393 78 -4.0
467 78 4.0
305 79 4.0
306 79 -4.0
308 79 -4.0
100 80 4.0
335 80 -4.0
151 81 -4.0
220 81 4.0
436 81 -4.0
155 82 4.0
183 82 -4.0
283 82 -4.0
183 83 -4.0
203 83 4.0
211 83 -4.0
141 84 4.0
225 84 -4.0
343 84 -4.0
410 84 4.0
201 85 4.0
207 85 -4.0
422 85 4.0
461 85 -4.0
98 86 4.0
275 86 -4.0
359 86 -4.0
389 86 4.0
98 87 -4.0
158 87 4.0
187 87 4.0
303 87 -4.0
309 88 -4.0
399 88 -4.0
432 88 4.0
154 89 -4.0
399 89 4.0
400 89 -4.0
477 89 4.0
185 90 -4.0
198 90 4.0
224 90 -4.0
136 91 4.0
212 91 -4.0
316 91 -4.0
378 91 4.0
467 92 4.0
468 92 -4.0
470 92 -4.0
282 93 -4.0
366 93 -4.0
471 93 4.0
161 94 -4.0
366 94 4.0
367 94 -4.0
438 94 4.0
188 95 4.0
223 95 -4.0
283 95 4.0
439 95 -4.0
103 96 -4.0
286 96 -4.0
346 96 4.0
451 96 4.0
109 97 4.0
189 97 -4.0
244 97 4.0
265 97 -4.0
329 98 -4.0
392 98 4.0
392 99 4.0
429 99 -4.0
234 100 -4.0
398 100 4.0
470 100 -4.0
114 101 4.0
335 101 -4.0
474 101 4.0
192 102 4.0
210 102 -4.0
312 102 4.0
403 102 -4.0
104 103 4.0
193 103 -4.0
487 103 4.0
225 104 -4.0
261 104 4.0
314 104 -4.0
164 105 -4.0
330 105 4.0
462 105 4.0
463 105 -4.0
277 106 -4.0
427 106 4.0
197 107 4.0
202 107 -4.0
338 107 4.0
370 107 -4.0
212 108 4.0
240 108 -4.0
241 108 -4.0
199 109 -4.0
168 110 -4.0
360 110 4.0
423 110 4.0
424 110 -4.0
256 111 -4.0
465 111 4.0
113 112 4.0
276 113 -4.0
391 113 4.0
306 114 4.0
362 114 -4.0
397 114 -4.0
116 115 -4.0
117 115 4.0
204 115 -4.0
242 115 4.0
148 116 4.0
319 116 -4.0
213 117 -4.0
215 117 4.0
228 117 -4.0
250 118 4.0
251 118 -4.0
253 118 -4.0
358 118 4.0
125 119 -4.0
232 119 4.0
255 119 -4.0
426 119 4.0
237 120 -4.0
310 120 4.0
436 120 -4.0
141 121 4.0
213 121 4.0
264 121 -4.0
490 121 -4.0
137 122 4.0
352 122 -4.0
352 123 4.0
353 123 -4.0
356 123 -4.0
231 124 -4.0
252 124 -4.0
327 124 4.0
126 125 4.0
466 125 -4.0
327 126 4.0
328 126 -4.0
331 126 -4.0
221 127 -4.0
336 127 4.0
400 127 -4.0
406 128 4.0
479 128 4.0
480 128 -4.0
483 128 -4.0
136 129 4.0
226 129 4.0
243 129 -4.0
451 129 -4.0
131 130 4.0
268 130 -4.0
385 130 4.0
386 130 -4.0
457 131 -4.0
218 132 -4.0
272 132 -4.0
300 132 4.0
300 133 4.0
301 133 -4.0
303 133 -4.0
236 134 4.0
237 134 -4.0
371 134 -4.0
440 134 4.0
440 135 4.0
441 135 -4.0
443 135 4.0
444 135 -4.0
409 136 -4.0
411 136 -4.0
296 137 -4.0
420 137 4.0
421 137 -4.0
272 138 4.0
273 138 -4.0
275 138 -4.0
465 139 4.0
466 139 -4.0
468 139 -4.0
404 140 4.0
405 140 -4.0
407 140 -4.0
482 140 4.0
377 141 -4.0
380 141 -4.0
252 142 4.0
253 142 -4.0
254 142 -4.0
160 143 -4.0
233 143 4.0
427 143 4.0
428 143 -4.0
242 144 4.0
345 144 -4.0
348 144 -4.0
166 145 -4.0
257 145 4.0
392 145 4.0
393 145 -4.0
150 146 4.0
365 146 -4.0
437 146 -4.0
475 146 4.0
260 147 4.0
475 147 4.0
476 147 -4.0
478 147 -4.0
317 148 -4.0
318 148 -4.0
271 149 4.0
459 149 4.0
460 149 -4.0
461 149 -4.0
334 150 4.0
336 150 -4.0
283 151 4.0
437 151 4.0
439 151 -4.0
299 152 4.0
420 152 4.0
421 152 -4.0
422 152 -4.0
306 153 -4.0
333 153 -4.0
468 153 4.0
312 154 4.0
401 154 4.0
403 154 -4.0
156 155 4.0
313 155 -4.0
407 155 -4.0
315 156 4.0
374 156 -4.0
481 156 -4.0
326 157 4.0
385 157 4.0
386 157 -4.0
388 157 -4.0
160 158 4.0
332 158 -4.0
468 158 -4.0
160 159 4.0
333 159 -4.0
362 159 -4.0
469 160 -4.0
338 161 4.0
368 161 4.0
370 161 -4.0
163 162 4.0
350 162 -4.0
170 163 -4.0
494 163 4.0
495 163 -4.0
464 164 4.0
466 164 -4.0
166 165 4.0
362 165 -4.0
395 165 -4.0
394 166 4.0
430 166 -4.0
382 167 -4.0
496 167 4.0
393 168 4.0
425 168 4.0
428 168 -4.0
409 169 4.0
484 169 4.0
485 169 -4.0
488 169 -4.0
496 170 4.0
379 171 4.0
413 171 -4.0
277 172 -4.0
256 173 -4.0
233 175 -4.0
305 175 -4.0
429 175 4.0
201 176 4.0
207 176 -4.0
181 177 -4.0
187 177 -4.0
257 178 -4.0
280 178 -4.0
305 178 -4.0
467 178 4.0
334 179 4.0
399 179 -4.0
433 179 -4.0
196 180 4.0
217 180 -4.0
278 181 -4.0
280 181 -4.0
363 182 4.0
366 182 -4.0
472 182 -4.0
261 183 -4.0
440 183 4.0
194 184 -4.0
416 184 -4.0
284 185 -4.0
313 185 -4.0
479 185 4.0
298 186 -4.0
325 186 4.0
458 186 4.0
428 187 -4.0
238 188 -4.0
314 188 -4.0
339 188 -4.0
205 189 -4.0
270 190 -4.0
355 190 4.0
419 190 4.0
361 191 4.0
466 191 -4.0
467 191 -4.0
261 192 -4.0
340 192 -4.0
372 192 -4.0
238 193 4.0
240 193 -4.0
340 193 -4.0
195 194 -4.0
227 194 4.0
293 194 -4.0
215 195 -4.0
250 196 -4.0
384 196 4.0
387 196 4.0
284 197 -4.0
373 197 -4.0
405 197 -4.0
212 198 -4.0
263 198 -4.0
373 198 -4.0
200 199 -4.0
214 199 4.0
320 199 -4.0
228 200 -4.0
353 201 4.0
314 202 -4.0
406 202 -4.0
441 202 -4.0
225 203 -4.0
286 203 -4.0
406 203 -4.0
205 204 4.0
226 204 -4.0
245 204 -4.0
206 205 -4.0
494 205 -4.0
245 206 -4.0
324 207 4.0
209 208 -4.0
219 208 -4.0
308 208 -4.0
220 209 -4.0
236 209 -4.0
367 209 4.0
340 210 -4.0
443 210 -4.0
480 210 -4.0
240 211 -4.0
316 211 -4.0
443 211 -4.0
445 212 -4.0
214 213 -4.0
290 213 -4.0
243 214 -4.0
266 214 -4.0
216 215 -4.0
454 215 -4.0
266 216 -4.0
218 217 -4.0
297 217 4.0
387 217 -4.0
420 218 4.0
221 219 -4.0
309 219 -4.0
402 219 4.0
222 220 -4.0
222 221 -4.0
404 222 -4.0
373 223 -4.0
482 223 -4.0
263 224 -4.0
343 224 -4.0
482 224 -4.0
287 225 -4.0
227 226 -4.0
318 226 -4.0
264 227 -4.0
294 227 -4.0
229 228 -4.0
414 228 -4.0
294 229 -4.0
231 230 -4.0
269 230 4.0
355 230 -4.0
459 231 4.0
233 232 -4.0
258 233 -4.0
258 234 -4.0
307 234 -4.0
237 235 -4.0
282 235 -4.0
438 235 4.0
239 238 -4.0
286 239 -4.0
375 239 -4.0
483 239 4.0
242 241 4.0
291 242 -4.0
244 243 -4.0
348 243 -4.0
291 244 -4.0
321 244 -4.0
246 245 -4.0
455 245 -4.0
321 246 -4.0
248 247 -4.0
352 247 -4.0
249 248 4.0
351 248 -4.0
354 248 -4.0
251 249 -4.0
325 249 -4.0
386 250 4.0
354 251 -4.0
392 254 -4.0
257 255 -4.0
277 255 -4.0
276 256 -4.0
279 256 4.0
279 257 -4.0
259 258 -4.0
279 259 -4.0
363 259 -4.0
432 259 4.0
479 260 4.0
262 261 -4.0
316 262 -4.0
408 262 -4.0
444 262 4.0
487 263 -4.0
265 264 -4.0
380 264 -4.0
319 265 -4.0
350 265 -4.0
267 266 -4.0
495 266 -4.0
350 267 -4.0
269 268 -4.0
383 269 -4.0
459 269 -4.0
271 270 4.0
421 270 4.0
273 271 -4.0
389 271 4.0
302 274 -4.0
361 274 4.0
361 275 -4.0
278 276 -4.0
304 277 4.0
304 278 -4.0
394 278 4.0
281 279 -4.0
334 280 4.0
304 281 -4.0
334 281 -4.0
471 281 4.0
397 282 -4.0
437 282 4.0
285 284 -4.0
445 284 -4.0
343 285 -4.0
407 285 4.0
447 285 -4.0
288 286 -4.0
289 287 -4.0
448 287 -4.0
289 288 -4.0
447 288 -4.0
489 288 -4.0
290 289 -4.0
349 290 -4.0
293 291 -4.0
411 291 -4.0
321 292 4.0
382 292 -4.0
493 292 4.0
349 293 -4.0
382 293 -4.0
295 294 -4.0
382 295 -4.0
297 296 -4.0
418 297 -4.0
420 297 -4.0
299 298 4.0
460 298 4.0
301 299 -4.0
423 299 4.0
303 302 -4.0
390 302 -4.0
423 302 4.0
306 304 -4.0
308 307 -4.0
333 307 4.0
434 307 -4.0
310 308 -4.0
401 309 4.0
434 309 -4.0
398 310 -4.0
401 310 -4.0
312 311 4.0
475 311 4.0
313 312 -4.0
315 314 -4.0
375 315 -4.0
486 315 -4.0
317 316 -4.0
450 317 -4.0
486 317 -4.0
381 318 -4.0
320 319 -4.0
452 319 -4.0
381 320 -4.0
415 320 -4.0
322 321 -4.0
415 322 -4.0
324 323 -4.0
457 323 -4.0
385 324 -4.0
456 324 -4.0
326 325 4.0
328 326 -4.0
462 326 4.0
331 329 -4.0
424 329 -4.0
462 329 4.0
332 330 -4.0
427 330 4.0
332 331 -4.0
368 335 4.0
368 336 -4.0
435 336 -4.0
338 337 4.0
437 337 4.0
339 338 -4.0
442 339 -4.0
342 340 -4.0
342 341 -4.0
442 341 -4.0
445 341 -4.0
344 342 -4.0
408 342 -4.0
345 343 -4.0
345 344 -4.0
446 344 -4.0
410 345 -4.0
348 346 4.0
409 346 -4.0
412 347 4.0
450 347 4.0
412 348 -4.0
491 349 -4.0
494 349 -4.0
413 350 4.0
353 351 -4.0
354 352 -4.0
356 354 -4.0
357 355 4.0
357 356 -4.0
359 357 -4.0
462 357 -4.0
461 358 -4.0
464 358 4.0
464 359 -4.0
465 360 4.0
394 361 4.0
364 362 -4.0
365 363 4.0
365 364 -4.0
367 365 -4.0
473 367 -4.0
402 368 4.0
370 369 4.0
401 369 4.0
372 370 -4.0
481 371 4.0
481 372 -4.0
374 373 -4.0
376 374 -4.0
447 374 -4.0
377 375 -4.0
377 376 -4.0
485 376 -4.0
378 377 -4.0
380 378 4.0
410 379 4.0
453 379 4.0
453 380 -4.0
454 381 -4.0
384 383 -4.0
386 384 -4.0
388 387 4.0
390 388 -4.0
423 388 -4.0
422 389 -4.0
425 389 4.0
425 390 -4.0
393 391 -4.0
425 391 4.0
396 395 -4.0
430 395 -4.0
471 395 -4.0
398 396 -4.0
400 397 4.0
400 398 -4.0
403 402 4.0
405 403 -4.0
484 406 -4.0
484 407 -4.0
409 408 -4.0
411 410 4.0
492 411 -4.0
414 412 -4.0
494 412 -4.0
416 413 -4.0
416 414 -4.0
492 414 -4.0
417 415 -4.0
417 416 -4.0
419 418 -4.0
421 419 -4.0
424 422 -4.0
428 426 -4.0
464 426 4.0
469 429 4.0
431 430 -4.0
432 431 -4.0
433 431 -4.0
469 431 -4.0
435 432 4.0
435 433 -4.0
436 434 4.0
436 435 -4.0
439 438 4.0
441 439 -4.0
444 442 -4.0
446 443 -4.0
446 444 -4.0
448 445 -4.0
448 446 -4.0
449 447 -4.0
449 448 -4.0
451 449 -4.0
452 450 4.0
452 451 -4.0
454 453 -4.0
455 453 -4.0
496 454 4.0
496 455 -4.0
458 456 -4.0
459 457 4.0
460 457 -4.0
460 458 -4.0
463 461 -4.0
470 469 -4.0
472 470 -4.0
473 471 4.0
473 472 -4.0
474 473 -4.0
475 474 -4.0
476 474 -4.0
477 476 -4.0
478 477 4.0
479 478 -4.0
480 478 -4.0
483 481 -4.0
485 482 -4.0
485 483 -4.0
486 484 -4.0
488 486 -4.0
490 487 4.0
490 488 -4.0
491 489 4.0
491 490 -4.0
493 491 -4.0
495 492 -4.0
495 493 -4.0
0.0 # default value for linear coefficients in objective
326 # number of non-default linear coefficients in objective
171 2.0
172 2.0
173 2.0
174 2.0
175 2.0
176 -2.0
177 4.0
178 2.0
179 2.0
180 -2.0
181 4.0
182 2.0
183 2.0
184 2.0
185 2.0
186 -2.0
187 2.0
188 2.0
189 2.0
190 -2.0
191 2.0
192 2.0
193 2.0
194 2.0
195 2.0
196 -2.0
197 2.0
198 2.0
199 2.0
200 2.0
201 -2.0
202 4.0
203 2.0
204 2.0
205 2.0
206 2.0
207 2.0
208 2.0
209 2.0
210 4.0
211 4.0
212 2.0
213 2.0
214 2.0
215 2.0
216 2.0
217 2.0
218 2.0
219 2.0
220 2.0
221 4.0
222 4.0
223 2.0
224 4.0
225 4.0
226 2.0
227 2.0
228 4.0
229 2.0
230 2.0
231 2.0
232 2.0
233 2.0
234 4.0
235 2.0
236 2.0
237 4.0
238 2.0
239 2.0
240 4.0
241 2.0
242 -2.0
243 4.0
244 2.0
245 4.0
246 2.0
247 2.0
248 2.0
249 2.0
250 -2.0
251 4.0
252 -2.0
253 2.0
254 2.0
255 4.0
256 2.0
257 2.0
258 2.0
259 2.0
260 -2.0
261 2.0
262 2.0
263 4.0
264 4.0
265 4.0
266 4.0
267 2.0
268 2.0
269 2.0
270 -2.0
271 -2.0
272 -2.0
273 2.0
274 2.0
275 4.0
276 4.0
277 2.0
278 2.0
279 2.0
280 2.0
281 2.0
282 2.0
283 -2.0
284 4.0
285 2.0
286 4.0
287 4.0
288 4.0
289 4.0
290 2.0
291 4.0
292 -2.0
293 4.0
294 2.0
295 2.0
296 2.0
297 2.0
298 -2.0
299 -2.0
300 -4.0
301 4.0
302 2.0
303 4.0
304 2.0
305 2.0
306 2.0
307 2.0
308 4.0
309 2.0
310 2.0
311 -2.0
312 -2.0
313 2.0
314 4.0
315 2.0
316 4.0
317 4.0
318 2.0
319 4.0
320 4.0
321 2.0
322 2.0
323 2.0
324 2.0
325 -2.0
326 -2.0
327 -4.0
328 4.0
329 2.0
330 -2.0
331 4.0
332 2.0
333 2.0
334 -2.0
335 2.0
336 2.0
337 -4.0
338 -2.0
339 4.0
340 4.0
341 4.0
342 4.0
343 4.0
344 2.0
345 4.0
346 -2.0
347 -2.0
348 2.0
349 4.0
350 2.0
351 2.0
352 2.0
353 2.0
354 4.0
355 -2.0
356 4.0
357 2.0
358 -2.0
359 4.0
360 -2.0
361 -2.0
362 4.0
363 -2.0
364 2.0
365 2.0
366 2.0
367 2.0
368 -2.0
369 -4.0
370 2.0
371 -2.0
372 4.0
373 4.0
374 4.0
375 4.0
376 4.0
377 4.0
378 -2.0
379 -2.0
380 2.0
381 2.0
382 4.0
383 2.0
384 2.0
385 -2.0
386 2.0
387 -2.0
388 2.0
389 -2.0
390 4.0
391 -2.0
392 -2.0
393 2.0
394 -2.0
395 4.0
396 2.0
397 2.0
398 2.0
399 2.0
400 2.0
401 -2.0
402 -4.0
403 2.0
404 -2.0
405 4.0
406 2.0
407 2.0
408 4.0
409 2.0
410 -2.0
411 2.0
412 2.0
413 2.0
414 4.0
415 4.0
416 4.0
417 2.0
418 2.0
419 2.0
420 -2.0
421 2.0
422 2.0
423 -2.0
424 4.0
425 -2.0
426 -2.0
427 -2.0
428 4.0
429 -2.0
430 2.0
431 4.0
432 -2.0
433 2.0
434 2.0
435 2.0
436 2.0
437 -2.0
438 -4.0
439 2.0
440 -4.0
441 4.0
442 2.0
443 2.0
444 2.0
445 4.0
446 4.0
447 4.0
448 4.0
449 4.0
450 -2.0
451 2.0
452 2.0
453 2.0
454 2.0
455 4.0
456 2.0
457 2.0
458 2.0
459 -2.0
460 2.0
461 4.0
462 -2.0
463 4.0
464 -2.0
465 -2.0
466 4.0
467 -2.0
468 2.0
469 2.0
470 4.0
471 -2.0
472 4.0
473 2.0
474 2.0
475 -2.0
476 2.0
477 -2.0
478 2.0
479 -2.0
480 4.0
481 2.0
482 2.0
483 2.0
484 2.0
485 4.0
486 4.0
487 -2.0
488 4.0
489 -2.0
490 2.0
491 2.0
492 2.0
493 2.0
494 2.0
495 4.0
496 -2.0
0.0 # objective constant
1.79769313486232E+308 # value for infinity
0.0 # default variable primal value in starting point
0 # number of non-default variable primal values in starting point
0.0 # default variable bound dual value in starting point
0 # number of non-default variable bound dual values in starting point
0 # number of non-default variable names
0 # number of non-default constraint names
